c   #vars: 76   #clauses: 335   #literals: 906
c 
p cnf 76 335
-2 -3 0
42 58 59 -67 0
18 19 24 25 0
-4 -5 0
-6 -7 0
36 37 -38 55 0
-10 -11 0
-12 -13 0
-14 -15 0
18 19 49 50 0
18 19 58 59 0
-16 -17 0
-18 -19 0
-20 -21 0
-22 -23 0
-24 -25 0
-26 -27 0
-28 -29 0
-30 -31 0
-32 -33 0
-34 -35 0
-36 -37 0
-38 -39 0
-40 -41 0
-43 -44 0
-45 -46 0
-47 -48 0
-49 -50 0
-51 -52 0
12 13 30 31 0
12 13 32 33 0
-53 -54 0
34 35 63 64 0
22 23 65 66 0
-16 28 29 60 0
-56 -57 0
-58 -59 0
49 50 63 64 0
4 5 49 50 0
-61 -62 0
1 -56 61 62 0
-63 -64 0
-65 -66 0
-67 -68 0
-69 -70 0
-71 -72 0
-73 -74 0
-75 -76 0
32 33 67 68 0
9 36 37 -58 0
-1 -57 0
10 11 61 62 0
-1 -62 0
6 7 67 68 0
-1 -74 0
4 5 30 31 0
-2 -28 0
-3 -29 0
30 31 75 76 0
-2 -34 0
-3 -35 0
-2 -53 0
-3 -54 0
18 19 56 57 0
-2 -58 0
-3 -59 0
42 -58 67 68 0
-2 -67 0
-3 -68 0
-10 42 58 59 0
8 51 52 -63 0
8 -49 63 64 0
10 11 42 -67 0
8 -49 51 52 0
18 19 73 74 0
45 46 65 66 0
43 44 58 59 0
2 3 53 54 0
1 56 57 -73 0
-4 -30 0
-5 -31 0
6 7 51 52 0
-4 -38 0
-5 -39 0
6 7 32 33 0
-4 -45 0
-5 -46 0
-4 -49 0
-5 -50 0
1 -61 73 74 0
-4 -73 0
-5 -74 0
47 48 61 62 0
-6 -32 0
-7 -33 0
-6 -43 0
-7 -44 0
-36 38 39 55 0
-6 -51 0
-7 -52 0
14 15 75 76 0
-7 -60 0
-6 -67 0
-7 -68 0
22 23 53 54 0
2 3 34 35 0
-22 36 37 55 0
-8 -50 0
22 23 -38 55 0
-8 -52 0
14 15 34 35 0
22 23 -36 55 0
-8 -64 0
8 49 50 -63 0
-9 -37 0
8 49 50 -51 0
-9 -48 0
18 19 40 41 0
-9 -59 0
10 11 45 46 0
9 47 48 -58 0
14 15 51 52 0
-10 -24 0
-11 -25 0
20 21 36 37 0
-10 -26 0
-11 -27 0
-11 -42 0
47 48 67 68 0
-10 -45 0
-11 -46 0
45 46 71 72 0
-10 -61 0
-11 -62 0
16 17 34 35 0
-12 -30 0
-13 -31 0
20 21 75 76 0
-12 -32 0
-13 -33 0
16 17 38 39 0
-12 -45 0
-13 -46 0
-12 -47 0
-13 -48 0
-12 -56 0
-13 -57 0
18 19 32 33 0
-12 -61 0
-13 -62 0
-14 -26 0
-15 -27 0
40 41 56 57 0
-14 -34 0
-15 -35 0
30 31 69 70 0
-14 -43 0
-15 -44 0
40 41 53 54 0
-14 -51 0
-15 -52 0
40 41 58 59 0
-14 -75 0
-15 -76 0
16 17 26 27 0
-16 -26 0
-17 -27 0
14 15 26 27 0
-16 -34 0
-17 -35 0
14 15 43 44 0
-16 -38 0
-17 -39 0
10 11 26 27 0
-16 -53 0
-17 -54 0
24 25 65 66 0
-17 -60 0
9 36 37 -47 0
-16 -69 0
-17 -70 0
22 23 28 29 0
-18 -24 0
-19 -25 0
2 3 58 59 0
-18 -32 0
-19 -33 0
-18 -40 0
-19 -41 0
16 17 53 54 0
-18 -49 0
-19 -50 0
34 35 61 62 0
-18 -56 0
-19 -57 0
12 13 61 62 0
-18 -58 0
-19 -59 0
22 23 75 76 0
-18 -73 0
-19 -74 0
-20 -26 0
-21 -27 0
-20 -28 0
-21 -29 0
4 5 38 39 0
-20 -36 0
-21 -37 0
24 25 56 57 0
-20 -51 0
-21 -52 0
49 50 65 66 0
-20 -61 0
-21 -62 0
26 27 69 70 0
-20 -65 0
-21 -66 0
38 39 73 74 0
-20 -71 0
-21 -72 0
12 13 47 48 0
-20 -75 0
-21 -76 0
10 11 24 25 0
-22 -28 0
-23 -29 0
-22 -53 0
-23 -54 0
-6 28 29 60 0
-23 -55 0
-22 -65 0
-23 -66 0
20 21 71 72 0
-22 -75 0
-23 -76 0
2 3 28 29 0
-24 -56 0
-25 -57 0
-24 -65 0
-25 -66 0
-24 -71 0
-25 -72 0
20 21 51 52 0
9 -36 47 48 0
-26 -69 0
-27 -70 0
20 21 26 27 0
-29 -60 0
16 17 -28 60 0
-28 -65 0
-29 -66 0
4 5 45 46 0
-30 -69 0
-31 -70 0
-22 38 39 55 0
-30 -75 0
-31 -76 0
34 35 71 72 0
-32 -67 0
-33 -68 0
45 46 69 70 0
-34 -56 0
-35 -57 0
28 29 65 66 0
-34 -61 0
-35 -62 0
1 -56 73 74 0
-34 -63 0
-35 -64 0
36 37 73 74 0
-34 -71 0
-35 -72 0
20 21 28 29 0
6 7 -28 60 0
-37 -55 0
-6 16 17 60 0
-36 -73 0
-37 -74 0
6 7 43 44 0
-38 -53 0
-39 -54 0
12 13 56 57 0
6 7 -16 60 0
-39 -55 0
43 44 63 64 0
-38 -73 0
-39 -74 0
1 56 57 -61 0
-40 -53 0
-41 -54 0
-40 -56 0
-41 -57 0
-40 -58 0
-41 -59 0
8 -51 63 64 0
9 -47 58 59 0
-42 -59 0
1 61 62 -73 0
9 -36 58 59 0
-42 -68 0
43 44 71 72 0
-43 -58 0
-44 -59 0
-43 -63 0
-44 -64 0
24 25 71 72 0
-43 -71 0
-44 -72 0
16 17 69 70 0
-45 -65 0
-46 -66 0
34 35 56 57 0
-45 -67 0
-46 -68 0
-45 -69 0
-46 -70 0
4 5 73 74 0
-45 -71 0
-46 -72 0
45 46 67 68 0
-47 -61 0
-48 -62 0
2 3 67 68 0
-47 -67 0
-48 -68 0
12 13 45 46 0
-49 -63 0
-50 -64 0
38 39 53 54 0
-49 -65 0
-50 -66 0
20 21 61 62 0
10 11 42 -58 0
20 21 65 66 0
-10 42 67 68 0
